data/solutions/recovery/degenerate/intermediate/binding/degenerate_intermediate_instance23/71.sol
Elapsed time: 0.05
Upper bound: 235335190.0
Planning weighted value: 8.99573822557e+11
C[0]=235335190.0
C[1]=235213009.0
C[2]=234891961.0
C[3]=231021899.0
C[4]=230634780.0
C[5]=230452339.0
C[6]=220462521.0
C[7]=219549138.0
C[8]=219287140.0
C[9]=214681809.0
C[10]=210876114.0
C[11]=0.0
y[0]=6
y[1]=4
y[2]=10
y[3]=5
y[4]=5
y[5]=9
y[6]=4
y[7]=10
y[8]=2
y[9]=0
y[10]=8
y[11]=4
y[12]=6
y[13]=0
y[14]=8
y[15]=8
y[16]=8
y[17]=6
y[18]=1
y[19]=1
y[20]=9
y[21]=7
y[22]=8
y[23]=3
y[24]=9
y[25]=10
y[26]=9
y[27]=2
y[28]=2
y[29]=2
y[30]=4
y[31]=9
y[32]=7
y[33]=1
y[34]=3
y[35]=6
y[36]=5
y[37]=10
y[38]=0
y[39]=6
y[40]=1
y[41]=9
y[42]=7
y[43]=7
y[44]=9
y[45]=4
y[46]=10
y[47]=0
y[48]=6
y[49]=4
y[50]=4
y[51]=1
y[52]=3
y[53]=8
y[54]=4
y[55]=6
y[56]=1
y[57]=7
y[58]=2
y[59]=5
y[60]=3
y[61]=8
y[62]=3
y[63]=2
y[64]=10
y[65]=2
y[66]=8
y[67]=6
y[68]=5
y[69]=3
y[70]=0
y[71]=7
y[72]=0
y[73]=6
y[74]=0
y[75]=0
y[76]=5
y[77]=0
